\ SCIP STATISTICS
\   Problem name     : gpp model -- soco
\   Variables        : 12 (4 binary, 0 integer, 0 implicit integer, 8 continuous)
\   Constraints      : 13
\   Obj. scale       : 1
\   Obj. offset      : 0
Minimize
 Obj: +1 z(1,2) +1 z(2,3) +1 z(2,4) +1 z(3,4)
Subject to
 Partition: +1 x(1) +1 x(2) +1 x(3) +1 x(4) = +2
 S(1,2): +1 s(1,2) +2 x(1) +2 x(2) + [ -1 x(1)^2 -1 x(2)^2 -2 x(1) * x(2) ] >= +1
 Z(1,2): +1 z(1,2) + [ -1 x(1)^2 -1 x(2)^2 +2 x(1) * x(2) ] >= +0
 P(1,2): +1 s(1,2) +1 z(1,2) = +1
 S(2,3): +1 s(2,3) +2 x(2) +2 x(3) + [ -1 x(2)^2 -1 x(3)^2 -2 x(2) * x(3) ] >= +1
 Z(2,3): +1 z(2,3) + [ -1 x(2)^2 -1 x(3)^2 +2 x(2) * x(3) ] >= +0
 P(2,3): +1 s(2,3) +1 z(2,3) = +1
 S(2,4): +1 s(2,4) +2 x(2) +2 x(4) + [ -1 x(2)^2 -1 x(4)^2 -2 x(2) * x(4) ] >= +1
 Z(2,4): +1 z(2,4) + [ -1 x(2)^2 -1 x(4)^2 +2 x(2) * x(4) ] >= +0
 P(2,4): +1 s(2,4) +1 z(2,4) = +1
 S(3,4): +1 s(3,4) +2 x(3) +2 x(4) + [ -1 x(3)^2 -1 x(4)^2 -2 x(3) * x(4) ] >= +1
 Z(3,4): +1 z(3,4) + [ -1 x(3)^2 -1 x(4)^2 +2 x(3) * x(4) ] >= +0
 P(3,4): +1 s(3,4) +1 z(3,4) = +1
Bounds
 0 <= x(1) <= 1
 0 <= x(2) <= 1
 0 <= x(3) <= 1
 0 <= x(4) <= 1
Binaries
 x(1) x(2) x(3) x(4)
End
